(set-info :smt-lib-version 2.6)
(set-logic LIA)
(set-info
  :source |
 Generated by PSyCO 0.1
 More info in N. P. Lopes and J. Monteiro. Weakest Precondition Synthesis for
 Compiler Optimizations, VMCAI'14.
|)
(set-info :category "industrial")
(set-info :status sat)
(declare-fun R_E1_V4 () Bool)
(declare-fun W_S1_V4 () Bool)
(declare-fun R_E1_V5 () Bool)
(declare-fun W_S1_V5 () Bool)
(declare-fun W_S2_V5 () Bool)
(declare-fun W_S2_V2 () Bool)
(declare-fun W_S2_V3 () Bool)
(declare-fun W_S2_V1 () Bool)
(declare-fun R_S2_V4 () Bool)
(declare-fun R_S2_V5 () Bool)
(declare-fun R_S2_V2 () Bool)
(declare-fun R_S2_V3 () Bool)
(declare-fun R_S2_V1 () Bool)
(declare-fun R_S1_V4 () Bool)
(declare-fun R_S1_V5 () Bool)
(declare-fun R_S1_V2 () Bool)
(declare-fun R_S1_V3 () Bool)
(declare-fun R_S1_V1 () Bool)
(declare-fun R_E1_V2 () Bool)
(declare-fun DISJ_W_S2_R_E1 () Bool)
(declare-fun DISJ_W_S2_R_S2 () Bool)
(declare-fun DISJ_W_S2_R_S1 () Bool)
(declare-fun DISJ_W_S1_W_S2 () Bool)
(declare-fun R_E1_V3 () Bool)
(declare-fun DISJ_W_S1_R_S2 () Bool)
(declare-fun DISJ_W_S1_R_S1 () Bool)
(declare-fun W_S2_V4 () Bool)
(declare-fun W_S1_V3 () Bool)
(declare-fun W_S1_V2 () Bool)
(declare-fun W_S1_V1 () Bool)
(declare-fun R_E1_V1 () Bool)
(declare-fun DISJ_W_S1_R_E1 () Bool)
(assert
 (let (($x51 (and W_S1_V4 R_E1_V4)))
 (let (($x3231 (not $x51)))
 (let (($x49 (and W_S1_V5 R_E1_V5)))
 (let (($x2773 (not $x49)))
 (let
 (($x3307
   (forall
    ((V3_0 Int) (V2_0 Int) 
     (V5_0 Int) (V4_0 Int) 
     (MW_S1_V1 Bool) (MW_S1_V3 Bool) 
     (MW_S1_V2 Bool) (MW_S1_V5 Bool) 
     (MW_S1_V4 Bool) (MW_S2_V1 Bool) 
     (MW_S2_V3 Bool) (MW_S2_V2 Bool) 
     (MW_S2_V5 Bool) (MW_S2_V4 Bool) 
     (S1_V1_!1516 Int) (S1_V1_!1527 Int) 
     (S1_V1_!1532 Int) (S2_V5_!1524 Int) 
     (S2_V5_!1541 Int) (S1_V3_!1517 Int) 
     (S1_V3_!1528 Int) (S1_V3_!1533 Int) 
     (S1_V2_!1518 Int) (S1_V2_!1529 Int) 
     (S1_V2_!1534 Int) (E1_!1515 Int) 
     (E1_!1526 Int) (E1_!1537 Int) 
     (S2_V4_!1525 Int) (S2_V4_!1542 Int) 
     (S1_V5_!1519 Int) (S1_V5_!1530 Int) 
     (S1_V5_!1535 Int) (S2_V1_!1521 Int) 
     (S2_V1_!1538 Int) (S1_V4_!1520 Int) 
     (S1_V4_!1531 Int) (S1_V4_!1536 Int) 
     (S2_V2_!1523 Int) (S2_V2_!1540 Int) 
     (S2_V3_!1522 Int) (S2_V3_!1539 Int))
    (let ((?x2661 (ite MW_S1_V4 S1_V4_!1536 V4_0)))
    (let ((?x2460 (ite MW_S2_V4 S2_V4_!1542 ?x2661)))
    (let ((?x2776 (ite MW_S1_V4 S1_V4_!1520 V4_0)))
    (let ((?x2726 (ite MW_S2_V4 S2_V4_!1525 ?x2776)))
    (let (($x2832 (= ?x2726 ?x2460)))
    (let ((?x2469 (ite MW_S1_V5 S1_V5_!1535 V5_0)))
    (let ((?x2907 (ite MW_S2_V5 S2_V5_!1541 ?x2469)))
    (let ((?x2912 (ite MW_S1_V5 S1_V5_!1519 V5_0)))
    (let ((?x2673 (ite MW_S2_V5 S2_V5_!1524 ?x2912)))
    (let (($x2640 (= ?x2673 ?x2907)))
    (let ((?x2740 (ite MW_S1_V2 S1_V2_!1534 V2_0)))
    (let ((?x2876 (ite MW_S2_V2 S2_V2_!1540 ?x2740)))
    (let ((?x2463 (ite MW_S1_V2 S1_V2_!1518 V2_0)))
    (let ((?x2464 (ite MW_S2_V2 S2_V2_!1523 ?x2463)))
    (let (($x2869 (= ?x2464 ?x2876)))
    (let ((?x2607 (ite MW_S1_V3 S1_V3_!1533 V3_0)))
    (let ((?x2656 (ite MW_S2_V3 S2_V3_!1539 ?x2607)))
    (let ((?x2643 (ite MW_S1_V3 S1_V3_!1517 V3_0)))
    (let ((?x2655 (ite MW_S2_V3 S2_V3_!1522 ?x2643)))
    (let (($x2630 (= ?x2655 ?x2656)))
    (let ((?x2642 (ite MW_S2_V1 S2_V1_!1538 E1_!1537)))
    (let ((?x2604 (ite MW_S1_V1 S1_V1_!1516 E1_!1515)))
    (let ((?x2621 (ite MW_S2_V1 S2_V1_!1521 ?x2604)))
    (let (($x3369 (= ?x2621 ?x2642)))
    (let (($x3391 (and $x3369 $x2630 $x2869 $x2640 $x2832)))
    (let ((?x2659 (+ (- 1) ?x2876)))
    (let (($x2634 (>= ?x2642 ?x2659)))
    (let (($x2601 (<= ?x2740 E1_!1537)))
    (let (($x2628 (not $x2601)))
    (let ((?x2444 (+ (- 1) ?x2740)))
    (let ((?x2801 (ite MW_S1_V1 S1_V1_!1527 E1_!1526)))
    (let ((?x2442 (+ 1 ?x2801)))
    (let ((?x2453 (ite MW_S1_V1 S1_V1_!1532 ?x2442)))
    (let (($x2754 (>= ?x2453 ?x2444)))
    (let ((?x2861 (ite MW_S1_V2 S1_V2_!1529 V2_0)))
    (let (($x2896 (<= ?x2861 ?x2442)))
    (let (($x2550 (not $x2896)))
    (let (($x2917 (<= V2_0 E1_!1526)))
    (let (($x2904 (not $x2917)))
    (let ((?x2599 (+ (- 1) ?x2464)))
    (let (($x2760 (>= ?x2621 ?x2599)))
    (let (($x2532 (<= V2_0 E1_!1515)))
    (let (($x2479 (not $x2532)))
    (let (($x2873 (and $x2479 $x2760 $x2904 $x2550 $x2754 $x2628 $x2634)))
    (let (($x2498 (not $x2873)))
    (let (($x2611 (not MW_S2_V5)))
    (let (($x2461 (or $x2611 W_S2_V5)))
    (let (($x3134 (not MW_S2_V2)))
    (let (($x2890 (or $x3134 W_S2_V2)))
    (let (($x3136 (not MW_S2_V3)))
    (let (($x2921 (or $x3136 W_S2_V3)))
    (let (($x2870 (not MW_S2_V1)))
    (let (($x2923 (or $x2870 W_S2_V1)))
    (let (($x2892 (not MW_S1_V4)))
    (let (($x2468 (or $x2892 W_S1_V4)))
    (let (($x2883 (not MW_S1_V5)))
    (let (($x2431 (or $x2883 W_S1_V5)))
    (let (($x2865 (not MW_S1_V2)))
    (let (($x2608 (not MW_S1_V1)))
    (let (($x2439 (= S2_V3_!1539 S2_V3_!1522)))
    (let (($x3017 (= ?x2661 ?x2776)))
    (let (($x223 (not R_S2_V4)))
    (let (($x3036 (or $x223 $x3017)))
    (let (($x3008 (= ?x2469 ?x2912)))
    (let (($x221 (not R_S2_V5)))
    (let (($x3148 (or $x221 $x3008)))
    (let (($x2753 (= ?x2740 ?x2463)))
    (let (($x219 (not R_S2_V2)))
    (let (($x2975 (or $x219 $x2753)))
    (let (($x2767 (= ?x2607 ?x2643)))
    (let (($x217 (not R_S2_V3)))
    (let (($x2762 (or $x217 $x2767)))
    (let (($x2562 (= E1_!1537 ?x2604)))
    (let (($x215 (not R_S2_V1)))
    (let (($x2632 (or $x215 $x2562)))
    (let (($x3153 (and $x2632 $x2762 $x2975 $x3148 $x3036)))
    (let (($x3103 (not $x3153)))
    (let (($x2937 (or $x3103 $x2439)))
    (let (($x2704 (= S2_V2_!1540 S2_V2_!1523)))
    (let (($x2519 (or $x3103 $x2704)))
    (let (($x2706 (= S1_V4_!1536 S1_V4_!1531)))
    (let ((?x2910 (ite MW_S1_V4 S1_V4_!1531 V4_0)))
    (let (($x2884 (= ?x2910 V4_0)))
    (let (($x210 (not R_S1_V4)))
    (let (($x2565 (or $x210 $x2884)))
    (let ((?x2646 (ite MW_S1_V5 S1_V5_!1530 V5_0)))
    (let (($x2854 (= ?x2646 V5_0)))
    (let (($x208 (not R_S1_V5)))
    (let (($x2821 (or $x208 $x2854)))
    (let (($x2657 (= ?x2861 V2_0)))
    (let (($x206 (not R_S1_V2)))
    (let (($x2820 (or $x206 $x2657)))
    (let ((?x2201 (ite MW_S1_V3 S1_V3_!1528 V3_0)))
    (let (($x2480 (= ?x2201 V3_0)))
    (let (($x204 (not R_S1_V3)))
    (let (($x2654 (or $x204 $x2480)))
    (let ((?x2872 (+ (- 1) E1_!1526)))
    (let (($x2819 (= ?x2801 ?x2872)))
    (let (($x202 (not R_S1_V1)))
    (let (($x2658 (or $x202 $x2819)))
    (let (($x2877 (and $x2658 $x2654 $x2820 $x2821 $x2565)))
    (let (($x2843 (not $x2877)))
    (let (($x2674 (or $x2843 $x2706)))
    (let (($x2484 (= S1_V4_!1536 S1_V4_!1520)))
    (let ((?x2499 (+ (- 1) E1_!1515)))
    (let (($x2615 (= ?x2801 ?x2499)))
    (let (($x2789 (or $x202 $x2615)))
    (let (($x2918 (and $x2789 $x2654 $x2820 $x2821 $x2565)))
    (let (($x2203 (not $x2918)))
    (let (($x2470 (or $x2203 $x2484)))
    (let (($x2486 (= S1_V4_!1531 S1_V4_!1520)))
    (let (($x2895 (= E1_!1526 E1_!1515)))
    (let (($x2830 (or $x202 $x2895)))
    (let (($x2506 (not $x2830)))
    (let (($x2475 (or $x2506 $x2486)))
    (let (($x2842 (= S2_V1_!1538 S2_V1_!1521)))
    (let (($x3407 (or $x3103 $x2842)))
    (let (($x2204 (= S1_V5_!1530 S1_V5_!1535)))
    (let (($x2600 (= V4_0 ?x2910)))
    (let (($x2882 (or $x210 $x2600)))
    (let (($x2818 (= V5_0 ?x2646)))
    (let (($x2709 (or $x208 $x2818)))
    (let (($x2815 (= V2_0 ?x2861)))
    (let (($x2524 (or $x206 $x2815)))
    (let (($x2902 (= V3_0 ?x2201)))
    (let (($x2602 (or $x204 $x2902)))
    (let (($x2652 (= E1_!1526 ?x2442)))
    (let (($x2202 (or $x202 $x2652)))
    (let (($x2612 (and $x2202 $x2602 $x2524 $x2709 $x2882)))
    (let (($x2625 (not $x2612)))
    (let (($x2200 (or $x2625 $x2204)))
    (let (($x2610 (= S1_V5_!1530 S1_V5_!1519)))
    (let (($x2631 (or $x2506 $x2610)))
    (let (($x2703 (= S1_V5_!1519 S1_V5_!1535)))
    (let (($x2449 (= E1_!1515 ?x2442)))
    (let (($x2637 (or $x202 $x2449)))
    (let (($x2635 (and $x2637 $x2602 $x2524 $x2709 $x2882)))
    (let (($x2629 (not $x2635)))
    (let (($x2684 (or $x2629 $x2703)))
    (let (($x2953 (= S2_V4_!1542 S2_V4_!1525)))
    (let (($x2769 (or $x3103 $x2953)))
    (let (($x2747 (= E1_!1537 E1_!1526)))
    (let (($x3230 (= ?x2661 V4_0)))
    (let (($x158 (not R_E1_V4)))
    (let (($x2512 (or $x158 $x3230)))
    (let (($x2988 (= ?x2469 V5_0)))
    (let (($x156 (not R_E1_V5)))
    (let (($x3037 (or $x156 $x2988)))
    (let (($x3444 (= ?x2740 V2_0)))
    (let (($x154 (not R_E1_V2)))
    (let (($x3480 (or $x154 $x3444)))
    (let (($x2962 (and $x3480 $x3037 $x2512)))
    (let (($x2778 (not $x2962)))
    (let (($x2446 (or $x2778 $x2747)))
    (let (($x2885 (= E1_!1515 E1_!1537)))
    (let (($x3576 (= V4_0 ?x2661)))
    (let (($x2857 (or $x158 $x3576)))
    (let (($x3096 (= V5_0 ?x2469)))
    (let (($x3375 (or $x156 $x3096)))
    (let (($x3396 (= V2_0 ?x2740)))
    (let (($x3097 (or $x154 $x3396)))
    (let (($x3269 (and $x3097 $x3375 $x2857)))
    (let (($x3287 (not $x3269)))
    (let (($x3003 (or $x3287 $x2885)))
    (let (($x2692 (= E1_!1515 E1_!1526)))
    (let (($x2458 (= S1_V2_!1534 S1_V2_!1529)))
    (let (($x2723 (or $x2843 $x2458)))
    (let (($x2714 (= S1_V2_!1534 S1_V2_!1518)))
    (let (($x2527 (or $x2203 $x2714)))
    (let (($x2719 (= S1_V2_!1518 S1_V2_!1529)))
    (let (($x2545 (or $x202 $x2692)))
    (let (($x2847 (not $x2545)))
    (let (($x2860 (or $x2847 $x2719)))
    (let (($x2868 (= S1_V3_!1533 S1_V3_!1528)))
    (let (($x2670 (or $x2843 $x2868)))
    (let (($x2811 (= S1_V3_!1533 S1_V3_!1517)))
    (let (($x2434 (or $x2203 $x2811)))
    (let (($x3591 (= S1_V3_!1517 S1_V3_!1528)))
    (let (($x2696 (or $x2847 $x3591)))
    (let (($x3171 (= S2_V5_!1541 S2_V5_!1524)))
    (let (($x3026 (or $x3103 $x3171)))
    (let (($x2782 (= S1_V1_!1532 S1_V1_!1527)))
    (let (($x3032 (or $x2843 $x2782)))
    (let (($x3266 (= S1_V1_!1516 S1_V1_!1532)))
    (let (($x3456 (or $x2629 $x3266)))
    (let (($x3192 (= S1_V1_!1516 S1_V1_!1527)))
    (let (($x2592 (or $x2847 $x3192)))
    (let
    (($x2669
      (and $x2592 $x3456 $x3032 $x3026 $x2696 $x2434 $x2670 $x2860 $x2527
      $x2723 $x2692 $x3003 $x2446 $x2769 $x2684 $x2631 $x2200 $x3407 $x2475
      $x2470 $x2674 $x2519 $x2937 $x2608 $x2865 $x2431 $x2468 $x2923 $x2921
      $x2890 $x2461)))
    (let (($x3123 (not $x2669))) (or $x3123 $x2498 $x3391)))))))))))))))))))))))))))))))))))))))))))))))))))))))))))))))))))))))))))))))))))))))))))))))))))))))))))))))))))))))))))))))))))))))))))))))))))))))))))))))))))))))))))))))))))))))))))))))))
 (let (($x90 (and W_S2_V5 R_E1_V5)))
 (let (($x89 (and W_S2_V2 R_E1_V2)))
 (let (($x2850 (or $x89 $x90 R_E1_V4)))
 (let (($x3241 (not $x2850)))
 (let (($x2785 (= DISJ_W_S2_R_E1 $x3241)))
 (let (($x81 (and W_S2_V5 R_S2_V5)))
 (let (($x80 (and W_S2_V2 R_S2_V2)))
 (let (($x79 (and W_S2_V3 R_S2_V3)))
 (let (($x78 (and W_S2_V1 R_S2_V1)))
 (let (($x113 (or $x78 $x79 $x80 $x81 R_S2_V4)))
 (let (($x114 (not $x113)))
 (let (($x115 (= DISJ_W_S2_R_S2 $x114)))
 (let (($x72 (and W_S2_V5 R_S1_V5)))
 (let (($x71 (and W_S2_V2 R_S1_V2)))
 (let (($x70 (and W_S2_V3 R_S1_V3)))
 (let (($x69 (and W_S2_V1 R_S1_V1)))
 (let (($x110 (or $x69 $x70 $x71 $x72 R_S1_V4)))
 (let (($x111 (not $x110)))
 (let (($x112 (= DISJ_W_S2_R_S1 $x111)))
 (let (($x63 (and W_S1_V5 W_S2_V5)))
 (let (($x3458 (or W_S2_V3 $x63 W_S1_V4)))
 (let (($x2784 (not $x3458)))
 (let (($x3387 (= DISJ_W_S1_W_S2 $x2784)))
 (let (($x152 (not R_E1_V3)))
 (let (($x37 (and W_S1_V4 R_S2_V4)))
 (let (($x35 (and W_S1_V5 R_S2_V5)))
 (let (($x2582 (or R_S2_V3 $x35 $x37)))
 (let (($x3040 (not $x2582)))
 (let (($x3385 (= DISJ_W_S1_R_S2 $x3040)))
 (let (($x23 (and W_S1_V4 R_S1_V4)))
 (let (($x20 (and W_S1_V5 R_S1_V5)))
 (let (($x2575 (or R_S1_V3 $x20 $x23)))
 (let (($x2739 (not $x2575)))
 (let (($x3379 (= DISJ_W_S1_R_S1 $x2739)))
 (let (($x2209 (not W_S1_V2)))
 (let (($x2206 (not W_S1_V1)))
 (let (($x150 (not R_E1_V1)))
 (and DISJ_W_S1_R_E1 $x150 $x2206 $x2209 W_S1_V3 W_S2_V4 $x3379 $x3385 $x152
 $x3387 $x112 $x115 $x2785 $x3307 $x2773 $x3231))))))))))))))))))))))))))))))))))))))))))))
(assert
 (let (($x2259 (not W_S2_V2)))
 (let (($x3173 (and $x2259 DISJ_W_S2_R_S1 DISJ_W_S1_R_S1))) (not $x3173))))
(check-sat)
(exit)

